\ This file has been generated by DOcplex
\ ENCODING=ISO-8859-1
\Problem name: AMC CVRP Docplex Model

Minimize
 obj: 12 x_0 - 9 x_1 + 17 x_2 + 28 x_3 + 26 x_4 - 6 x_5 + 39 x_6 - 8 x_7
      + 27 x_8
Subject To
 allVarsCons: x_0 + x_1 + x_2 + x_3 + x_4 + x_5 + x_6 + x_7 + x_8 = 6
 randomCons: 41 x_7 = 41
 randomCons#2: 8 x_4 = 8
 randomCons#3: 29 x_0 + 4 x_2 + 26 x_6 + 29 x_8 = 84

Bounds
 0 <= x_0 <= 1
 0 <= x_1 <= 1
 0 <= x_2 <= 1
 0 <= x_3 <= 1
 0 <= x_4 <= 1
 0 <= x_5 <= 1
 0 <= x_6 <= 1
 0 <= x_7 <= 1
 0 <= x_8 <= 1

Binaries
 x_0 x_1 x_2 x_3 x_4 x_5 x_6 x_7 x_8
End
